* ENCODING=ISO-8859-1
NAME          CPLEX
ROWS
 N  obj1    
 G  c1      
 G  c2      
 G  c3      
 G  c4      
 G  c5      
 G  c6      
 G  c7      
 G  c8      
 G  c9      
 G  c10     
 G  c11     
 G  c12     
 G  c13     
 G  c14     
 G  c15     
 G  c16     
 G  c17     
 G  c18     
 G  c19     
 G  c20     
 G  c21     
 G  c22     
 G  c23     
 G  c24     
 G  c25     
 G  c26     
 G  c27     
 G  c28     
 G  c29     
 G  c30     
 G  c31     
 G  c32     
 G  c33     
 G  c34     
 G  c35     
COLUMNS
    MARK0000  'MARKER'                 'INTORG'
    x1        obj1                            1
    x1        c9                            516
    x2        obj1                            1
    x2        c12                           850
    x2        c14                           774
    x2        c17                           219
    x2        c19                           463
    x2        c30                           863
    x3        obj1                            1
    x3        c8                            323
    x3        c27                           996
    x3        c32                           648
    x4        obj1                            1
    x4        c11                           565
    x4        c26                           706
    x4        c33                           813
    x5        obj1                            1
    x5        c5                            730
    x5        c7                            626
    x6        obj1                            1
    x6        c10                           834
    x6        c21                           584
    x6        c24                           533
    x7        obj1                            1
    x7        c16                           898
    x7        c23                           524
    x7        c34                           597
    x8        obj1                            1
    x8        c15                           375
    x8        c22                           172
    x8        c35                           204
    x9        obj1                            1
    x9        c5                            943
    x9        c9                            834
    x9        c15                           159
    x10       obj1                            1
    x10       c20                           508
    x10       c30                           164
    x11       obj1                            1
    x11       c22                           481
    x12       obj1                            1
    x12       c13                           240
    x12       c24                           367
    x12       c30                           375
    x13       obj1                            1
    x13       c4                            836
    x13       c10                           303
    x13       c22                           600
    x13       c27                           464
    x13       c35                           792
    x14       obj1                            1
    x14       c6                            966
    x14       c16                           687
    x14       c23                           218
    x14       c32                           495
    x14       c34                           399
    x15       obj1                            1
    x15       c1                            725
    x15       c8                            978
    x15       c22                           863
    x15       c23                           129
    x15       c25                           395
    x15       c28                           702
    x16       obj1                            1
    x16       c22                           953
    x17       obj1                            1
    x17       c3                            231
    x17       c20                           293
    x17       c21                           517
    x17       c28                           621
    x17       c35                           604
    x18       obj1                            1
    x18       c13                           770
    x18       c14                           502
    x18       c20                           337
    x19       obj1                            1
    x19       c11                           570
    x19       c12                           919
    x20       obj1                            1
    x20       c13                           273
    x20       c14                           677
    x20       c26                           107
    x20       c32                           921
    x21       obj1                            1
    x22       obj1                            1
    x22       c31                           930
    x23       obj1                            1
    x23       c10                           399
    x23       c35                           267
    x24       obj1                            1
    x24       c13                           562
    x24       c18                           248
    x24       c25                           974
    x25       obj1                            1
    x25       c16                           702
    x25       c17                           229
    x25       c19                           389
    x25       c27                           367
    x26       obj1                            1
    x26       c10                           206
    x27       obj1                            1
    x27       c4                            285
    x27       c9                            873
    x27       c15                           520
    x28       obj1                            1
    x28       c18                           769
    x29       obj1                            1
    x29       c23                           575
    x30       obj1                            1
    x30       c2                            166
    x30       c9                            606
    x30       c17                           326
    x30       c19                           752
    x30       c33                           876
    x31       obj1                            1
    x31       c5                            522
    x31       c8                            671
    x31       c9                            877
    x31       c18                           533
    x31       c32                           550
    x32       obj1                            1
    x32       c6                            421
    x32       c9                            296
    x32       c15                           510
    x32       c21                           997
    x32       c22                           246
    x32       c29                           505
    x33       obj1                            1
    x33       c3                            510
    x33       c23                           816
    x33       c35                           959
    x34       obj1                            1
    x34       c19                           865
    x34       c20                           883
    x34       c23                           425
    x34       c34                           668
    x35       obj1                            1
    x35       c8                            879
    x35       c9                            678
    x35       c21                           216
    x35       c24                           200
    x35       c25                           410
    x35       c29                           884
    x35       c30                           350
    x35       c34                           270
    x35       c35                           281
    x36       obj1                            1
    x36       c25                           815
    x36       c26                           538
    x36       c27                           577
    x37       obj1                            1
    x37       c1                            248
    x37       c3                            114
    x37       c5                            976
    x37       c6                            237
    x37       c11                           873
    x37       c19                           423
    x37       c20                           670
    x37       c29                           447
    x38       obj1                            1
    x38       c1                            382
    x38       c3                            330
    x38       c5                            430
    x38       c14                           381
    x38       c27                           199
    x38       c30                           741
    x39       obj1                            1
    x39       c12                           113
    x39       c13                           900
    x39       c21                           425
    x39       c33                           493
    x40       obj1                            1
    x40       c5                            752
    x40       c6                            452
    x40       c8                            972
    x40       c22                           971
    x41       obj1                            1
    x41       c17                           883
    x41       c28                           537
    x42       obj1                            1
    x42       c7                            999
    x42       c8                            941
    x42       c14                           405
    x42       c23                           914
    x42       c30                           264
    x43       obj1                            1
    x43       c14                           474
    x43       c19                           139
    x44       obj1                            1
    x44       c5                            657
    x44       c15                           796
    x44       c20                           303
    x44       c23                           446
    x44       c29                           359
    x45       obj1                            1
    x45       c7                            674
    x45       c12                           466
    x45       c31                           868
    x46       obj1                            1
    x46       c10                           593
    x46       c12                           372
    x47       obj1                            1
    x47       c3                            388
    x47       c16                           484
    x47       c23                           728
    x47       c31                           818
    x48       obj1                            1
    x48       c23                           254
    x48       c35                           302
    x49       obj1                            1
    x49       c2                            673
    x49       c21                           735
    x49       c26                           122
    x49       c33                           390
    x50       obj1                            1
    x50       c11                           936
    x50       c12                           737
    x51       obj1                            1
    x51       c20                           831
    x52       obj1                            1
    x52       c27                           491
    x53       obj1                            1
    x53       c3                            423
    x53       c26                           937
    x53       c27                           894
    x53       c33                           344
    x54       obj1                            1
    x54       c10                           160
    x54       c17                           150
    x54       c24                           836
    x54       c33                           360
    x55       obj1                            1
    x55       c6                            518
    x55       c10                           204
    x55       c16                           803
    x55       c20                           926
    x56       obj1                            1
    x56       c1                            934
    x56       c12                           468
    x56       c16                           553
    x56       c17                           181
    x56       c18                           273
    x56       c31                           413
    x57       obj1                            1
    x58       obj1                            1
    x58       c4                            794
    x58       c18                           107
    x58       c35                           149
    x59       obj1                            1
    x60       obj1                            1
    x60       c3                            744
    x60       c28                           199
    x61       obj1                            1
    x61       c11                           362
    x61       c14                           502
    x61       c17                           983
    x61       c20                           671
    x61       c21                           949
    x62       obj1                            1
    x62       c9                            742
    x62       c11                           807
    x62       c13                           760
    x63       obj1                            1
    x63       c2                            229
    x63       c11                           288
    x63       c27                           469
    x63       c28                           865
    x64       obj1                            1
    x64       c9                            905
    x64       c17                           982
    x64       c24                           923
    x65       obj1                            1
    x65       c6                            287
    x65       c26                           610
    x66       obj1                            1
    x66       c6                            458
    x66       c9                            799
    x66       c19                           689
    x66       c29                           467
    x66       c30                           200
    x67       obj1                            1
    x67       c7                            920
    x67       c20                           334
    x67       c34                           905
    x68       obj1                            1
    x68       c4                            845
    x68       c12                           826
    x68       c16                           189
    x68       c21                           366
    x68       c25                           421
    x68       c27                           258
    x69       obj1                            1
    x69       c2                            180
    x69       c6                            726
    x69       c10                           493
    x70       obj1                            1
    x70       c15                           896
    x70       c34                           510
    MARK0001  'MARKER'                 'INTEND'
RHS
    rhs       c1                           1145
    rhs       c2                            624
    rhs       c3                           1370
    rhs       c4                           1380
    rhs       c5                           2505
    rhs       c6                           2033
    rhs       c7                           1610
    rhs       c8                           2382
    rhs       c9                           3563
    rhs       c10                          1596
    rhs       c11                          2201
    rhs       c12                          2376
    rhs       c13                          1753
    rhs       c14                          1858
    rhs       c15                          1628
    rhs       c16                          2158
    rhs       c17                          1977
    rhs       c18                           965
    rhs       c19                          1860
    rhs       c20                          2878
    rhs       c21                          2395
    rhs       c22                          2143
    rhs       c23                          2515
    rhs       c24                          1430
    rhs       c25                          1508
    rhs       c26                          1510
    rhs       c27                          2358
    rhs       c28                          1462
    rhs       c29                          1331
    rhs       c30                          1479
    rhs       c31                          1515
    rhs       c32                          1307
    rhs       c33                          1638
    rhs       c34                          1675
    rhs       c35                          1779
BOUNDS
 LI bnd       x1        0
 LI bnd       x2        0
 LI bnd       x3        0
 LI bnd       x4        0
 LI bnd       x5        0
 LI bnd       x6        0
 LI bnd       x7        0
 LI bnd       x8        0
 LI bnd       x9        0
 LI bnd       x10       0
 LI bnd       x11       0
 LI bnd       x12       0
 LI bnd       x13       0
 LI bnd       x14       0
 LI bnd       x15       0
 LI bnd       x16       0
 LI bnd       x17       0
 LI bnd       x18       0
 LI bnd       x19       0
 LI bnd       x20       0
 LI bnd       x21       0
 LI bnd       x22       0
 LI bnd       x23       0
 LI bnd       x24       0
 LI bnd       x25       0
 LI bnd       x26       0
 LI bnd       x27       0
 LI bnd       x28       0
 LI bnd       x29       0
 LI bnd       x30       0
 LI bnd       x31       0
 LI bnd       x32       0
 LI bnd       x33       0
 LI bnd       x34       0
 LI bnd       x35       0
 LI bnd       x36       0
 LI bnd       x37       0
 LI bnd       x38       0
 LI bnd       x39       0
 LI bnd       x40       0
 LI bnd       x41       0
 LI bnd       x42       0
 LI bnd       x43       0
 LI bnd       x44       0
 LI bnd       x45       0
 LI bnd       x46       0
 LI bnd       x47       0
 LI bnd       x48       0
 LI bnd       x49       0
 LI bnd       x50       0
 LI bnd       x51       0
 LI bnd       x52       0
 LI bnd       x53       0
 LI bnd       x54       0
 LI bnd       x55       0
 LI bnd       x56       0
 LI bnd       x57       0
 LI bnd       x58       0
 LI bnd       x59       0
 LI bnd       x60       0
 LI bnd       x61       0
 LI bnd       x62       0
 LI bnd       x63       0
 LI bnd       x64       0
 LI bnd       x65       0
 LI bnd       x66       0
 LI bnd       x67       0
 LI bnd       x68       0
 LI bnd       x69       0
 LI bnd       x70       0
ENDATA
